CMD:
./solvers/bin/cadical --plain --no-reduce -t 1600 ./data/cnfs//oski15a14b33s/oski15a14b33s.75.cnf

c --- [ banner ] -------------------------------------------------------------
c 
c CaDiCaL SAT Solver
c Copyright (c) 2016-2024
c A. Biere, M. Fleury, N. Froleyks, K. Fazekas, F. Pollitt, T. Faller
c JKU Linz, University of Freiburg, TU Wien
c 
c Version 2.1.3 5296d3d2a9bf48c154ab2acb5e44625776d821bf
c g++ (Gentoo 12.3.1_p20230526 p2) 12.3.1 20230526 -Wall -Wextra -O3 -DNDEBUG
c Sat Aug 9 07:26:21 PDT 2025 Linux cedar2.int.cedar.computecanada.ca 5.14.0-362.24.2.el9_3.x86_64 x86_64
c 
c --- [ limit ] --------------------------------------------------------------
c 
c setting time limit to 1600 seconds real time (due to '-t 1600')
c 
c --- [ parsing input ] ------------------------------------------------------
c 
c reading DIMACS file from './data/cnfs//oski15a14b33s/oski15a14b33s.75.cnf'
c opening file to read './data/cnfs//oski15a14b33s/oski15a14b33s.75.cnf'
c found 'p cnf 3342767 9776967' header
c parsed 9776967 clauses in 2.10 seconds process time
c 
c --- [ options ] ------------------------------------------------------------
c 
c   --compact=false                (different from default 'true')
c   --decompose=false              (different from default 'true')
c   --deduplicate=false            (different from default 'true')
c   --elim=false                   (different from default 'true')
c   --probe=false                  (different from default 'true')
c   --reduce=false                 (different from default 'true')
c   --subsume=false                (different from default 'true')
c   --ternary=false                (different from default 'true')
c   --transred=false               (different from default 'true')
c   --vivify=false                 (different from default 'true')
c 
c --- [ solving ] ------------------------------------------------------------
c 
c time measured in process time since initialization
c 
c  seconds    reductions  redundant   irredundant
c          MB     restarts       trail         variables
c            level   conflicts       glue            remaining
c 
c *  2.10 1479  0 0   0    0    0  0% 0 9392008 2955233 88%
c {  2.74 1506  0 0   0    0    0  0% 0 9392008 2955233 88%
c i  2.74 1506  1 0   0    1    0 12% 0 9392008 2955232 88%
c i  2.75 1506  1 0   0    2    0 12% 0 9392008 2955231 88%
c i  2.75 1506  1 0   0    3    0 12% 0 9392008 2955230 88%
c i  2.75 1506  1 0   1    4    0 12% 0 9392008 2955229 88%
c i  2.76 1506  1 0   1    5    0 12% 0 9392008 2955228 88%
c i  2.76 1506  1 0   1    6    0 12% 0 9392008 2955227 88%
c i  2.76 1506  1 0   2    7    0 12% 0 9392008 2955226 88%
c i  2.77 1506  1 0   2    8    0 12% 0 9392008 2955225 88%
c i  2.77 1506  1 0   2    9    0 12% 0 9392008 2955224 88%
c i  2.77 1506  1 0   3   10    0 12% 0 9392008 2955223 88%
c i  2.77 1506  1 0   3   11    0 12% 0 9392008 2955222 88%
c i  2.78 1506  1 0   3   12    0 12% 0 9392008 2955221 88%
c i  2.78 1506  1 0   4   13    0 12% 0 9392008 2955220 88%
c i  2.78 1506  1 0   4   14    0 12% 0 9392008 2955219 88%
c i  2.79 1506  1 0   4   15    0 12% 0 9392008 2955218 88%
c i  2.79 1506  1 0   5   16    0 12% 0 9392008 2955217 88%
c i  2.79 1506  1 0   5   17    0 12% 0 9392008 2955216 88%
c i  2.80 1506  1 0   5   18    0 12% 0 9392008 2955215 88%
c 
c  seconds    reductions  redundant   irredundant
c          MB     restarts       trail         variables
c            level   conflicts       glue            remaining
c 
c i  2.80 1506  1 0   6   19    0 12% 0 9392008 2955214 88%
c i  2.80 1506  1 0   6   20    0 12% 0 9392008 2955213 88%
c i  2.80 1506  1 0   6   21    0 12% 0 9392008 2955212 88%
c i  2.81 1506  1 0   7   22    0 12% 0 9392008 2955211 88%
c i  2.81 1506  1 0   7   23    0 12% 0 9392008 2955210 88%
c i  2.81 1506  1 0   7   24    0 12% 0 9392008 2955209 88%
c i  2.82 1506  1 0   8   25    0 12% 0 9392008 2955208 88%
c i  2.82 1506  1 0   8   26    0 12% 0 9392008 2955207 88%
c i  2.82 1506  1 0   8   27    0 12% 0 9392008 2955206 88%
c i  2.82 1506  1 0   9   28    0 12% 0 9392008 2955205 88%
c i  2.83 1506  1 0   9   29    0 12% 0 9392008 2955204 88%
c i  2.83 1506  1 0   9   30    0 12% 0 9392008 2955203 88%
c i  2.83 1506  1 0  10   31    0 12% 0 9392008 2955202 88%
c i  2.84 1506  1 0  10   32    0 12% 0 9392008 2955201 88%
c i  2.84 1506  1 0  10   33    0 12% 0 9392008 2955200 88%
c i  2.84 1506  1 0  11   34    0 12% 0 9392008 2955199 88%
c i  2.85 1506  1 0  11   35    0 12% 0 9392008 2955198 88%
c i  2.85 1506  1 0  11   36    0 12% 0 9392008 2955197 88%
c i  2.85 1506  1 0  12   37    0 12% 0 9392008 2955196 88%
c i  2.85 1506  1 0  12   38    0 12% 0 9392008 2955195 88%
c 
c  seconds    reductions  redundant   irredundant
c          MB     restarts       trail         variables
c            level   conflicts       glue            remaining
c 
c i  2.86 1506  1 0  12   39    0 12% 0 9392008 2955194 88%
c i  2.86 1506  1 0  13   40    0 12% 0 9392008 2955193 88%
c i  2.86 1506  1 0  13   41    0 12% 0 9392008 2955192 88%
c i  2.87 1506  1 0  13   42    0 12% 0 9392008 2955191 88%
... skipped 380976 lines ...
v -3342300 3342301 3342302 -3342303 -3342304 -3342305 -3342306 -3342307
v 3342308 3342309 -3342310 -3342311 3342312 3342313 -3342314 -3342315 -3342316
v -3342317 -3342318 -3342319 3342320 3342321 -3342322 -3342323 3342324 3342325
v -3342326 -3342327 -3342328 -3342329 -3342330 3342331 3342332 -3342333
v -3342334 3342335 3342336 -3342337 -3342338 -3342339 3342340 3342341 -3342342
v -3342343 3342344 3342345 -3342346 -3342347 -3342348 3342349 3342350 -3342351
v -3342352 3342353 3342354 -3342355 -3342356 -3342357 3342358 3342359 -3342360
v -3342361 3342362 3342363 -3342364 -3342365 -3342366 3342367 3342368 -3342369
v -3342370 3342371 3342372 -3342373 -3342374 -3342375 3342376 3342377 -3342378
v -3342379 3342380 3342381 -3342382 -3342383 -3342384 3342385 3342386 -3342387
v -3342388 3342389 3342390 -3342391 -3342392 -3342393 3342394 3342395 -3342396
v -3342397 3342398 3342399 -3342400 -3342401 -3342402 3342403 3342404 -3342405
v -3342406 3342407 3342408 -3342409 -3342410 -3342411 3342412 3342413 -3342414
v -3342415 3342416 3342417 -3342418 -3342419 -3342420 3342421 3342422 -3342423
v -3342424 3342425 3342426 -3342427 -3342428 -3342429 3342430 3342431 -3342432
v -3342433 3342434 3342435 -3342436 -3342437 -3342438 3342439 3342440 -3342441
v -3342442 3342443 3342444 -3342445 -3342446 -3342447 3342448 3342449 -3342450
v -3342451 3342452 3342453 -3342454 -3342455 -3342456 3342457 3342458 -3342459
v -3342460 3342461 3342462 -3342463 -3342464 -3342465 3342466 3342467 -3342468
v -3342469 3342470 3342471 -3342472 -3342473 -3342474 3342475 3342476 -3342477
v -3342478 3342479 3342480 -3342481 -3342482 -3342483 3342484 3342485 -3342486
v -3342487 3342488 3342489 -3342490 -3342491 -3342492 3342493 3342494 -3342495
v -3342496 3342497 3342498 -3342499 -3342500 -3342501 3342502 3342503 -3342504
v -3342505 3342506 3342507 -3342508 -3342509 -3342510 3342511 3342512 -3342513
v -3342514 3342515 3342516 -3342517 -3342518 -3342519 3342520 3342521 -3342522
v -3342523 3342524 3342525 -3342526 -3342527 -3342528 3342529 3342530 -3342531
v -3342532 3342533 3342534 -3342535 -3342536 -3342537 3342538 3342539 -3342540
v -3342541 3342542 3342543 -3342544 -3342545 -3342546 3342547 3342548 -3342549
v -3342550 3342551 3342552 -3342553 -3342554 -3342555 3342556 3342557 -3342558
v -3342559 3342560 3342561 -3342562 -3342563 -3342564 3342565 3342566 -3342567
v -3342568 3342569 3342570 -3342571 -3342572 -3342573 3342574 3342575 -3342576
v -3342577 3342578 3342579 -3342580 -3342581 -3342582 3342583 3342584 -3342585
v -3342586 3342587 3342588 -3342589 -3342590 -3342591 3342592 3342593 -3342594
v -3342595 3342596 3342597 -3342598 -3342599 -3342600 3342601 3342602 -3342603
v -3342604 3342605 3342606 -3342607 -3342608 -3342609 3342610 3342611 -3342612
v -3342613 3342614 3342615 -3342616 -3342617 -3342618 3342619 3342620 -3342621
v -3342622 3342623 3342624 -3342625 -3342626 -3342627 3342628 3342629 -3342630
v -3342631 3342632 3342633 -3342634 -3342635 -3342636 3342637 3342638 -3342639
v -3342640 3342641 3342642 -3342643 -3342644 -3342645 3342646 3342647 -3342648
v -3342649 3342650 3342651 -3342652 -3342653 -3342654 3342655 3342656 -3342657
v -3342658 3342659 3342660 -3342661 -3342662 -3342663 3342664 3342665 -3342666
v -3342667 3342668 3342669 -3342670 -3342671 -3342672 3342673 3342674 -3342675
v -3342676 3342677 3342678 -3342679 -3342680 -3342681 3342682 3342683 -3342684
v -3342685 3342686 3342687 -3342688 -3342689 -3342690 3342691 3342692 -3342693
v -3342694 3342695 3342696 -3342697 -3342698 -3342699 3342700 3342701 -3342702
v -3342703 3342704 3342705 -3342706 -3342707 -3342708 3342709 3342710 -3342711
v -3342712 3342713 3342714 -3342715 -3342716 -3342717 3342718 3342719 -3342720
v -3342721 3342722 3342723 -3342724 -3342725 -3342726 3342727 3342728 -3342729
v -3342730 3342731 3342732 -3342733 -3342734 -3342735 3342736 3342737 -3342738
v -3342739 3342740 3342741 -3342742 -3342743 -3342744 3342745 3342746 -3342747
v -3342748 3342749 3342750 -3342751 -3342752 -3342753 -3342754 3342755
v -3342756 -3342757 3342758 3342759 -3342760 -3342761 3342762 -3342763
v -3342764 3342765 3342766 -3342767 0
c 
c --- [ run-time profiling ] -------------------------------------------------
c 
c process time taken by individual solving procedures
c (percentage relative to process time for solving)
c 
c         7.77  100.00% search
c         6.27   80.75% unstable
c         2.10   27.09% parse
c         0.86   11.05% stable
c         0.64    8.20% lucky
c         0.00    0.00% simplify
c   =================================
c         7.77   77.01% solve
c 
c last line shows process time for solving
c (percentage relative to total process time)
c 
c --- [ statistics ] ---------------------------------------------------------
c 
c chronological:               830        82.75 %  of conflicts
c conflicts:                  1003       129.14    per second
c decisions:                366049     47129.87    per second
c fixed:                    388092        11.61 %  of all variables
c learned:                     994        99.10 %  per conflict
c learned_lits:              18431       100.00 %  learned literals
c minimized:                     0         0.00 %  learned literals
c shrunken:                  14883        80.75 %  learned literals
c minishrunken:                 10         0.05 %  learned literals
c otfs:                          0         0.00 %  of conflict
c propagations:           58055204         7.47 M  per second
c rephased:                      1      1003.00    interval
c restarts:                    213         4.71    interval
c stabilizing:                   1         0.20 %  of conflicts
c subsumed:                      2         0.00 %  of all clauses
c 
c seconds are measured in process time for solving
c 
c --- [ resources ] ----------------------------------------------------------
c 
c total process time since initialization:        10.09    seconds
c total real time since initialization:           10.17    seconds
c maximum resident set size of process:         1507.00    MB
c 
c --- [ shutting down ] ------------------------------------------------------
c 
c exit 10
